0 442.56
496 380.06
992 332.3
1488 295.32
1984 266.74
2480 244.08
2976 226
3472 212.12
3968 200.22
4464 190.98
4960 183.5
5456 177.12
5952 172.2
6448 168.26
6944 165
7440 162.9
7936 161.52
8432 160.96
8928 160.64
9424 160.46
9920 160.4
10416 160.38
10912 160.36
